Route 1: 0 17 52 36 28 9 54 13 12 59 0
Route 2: 0 48 47 73 87 23 67 71 68 27 14 0
Route 3: 0 50 26 57 85 55 39 10 70 40 0
Route 4: 0 83 46 51 35 61 20 93 7 0
Route 5: 0 29 91 92 66 80 15 4 72 18 11 3 0
Route 6: 0 56 84 34 24 25 62 86 21 45 0
Route 7: 0 37 97 74 2 53 42 8 33 69 30 0
Route 8: 0 82 6 65 89 43 100 76 96 0
Route 9: 0 32 44 49 60 1 16 38 22 75 99 0
Route 10: 0 78 81 95 90 94 63 77 98 0
Route 11: 0 58 88 5 19 41 31 64 79 0
